Ba2 Ni O6 W
1.0
      0.0000000000       4.0320000649       4.0320000649
      4.0320000649       0.0000000000       4.0320000649
      4.0320000649       4.0320000649       0.0000000000
  Ba    W   Ni    O
    2    1    1   6
Direct
            0.2500000000       0.2500000000       0.2500000000
            0.7500000000       0.7500000000       0.7500000000
            0.0000000000       0.0000000000       0.0000000000
            0.5000000000       0.5000000000       0.5000000000
            0.7530000000       0.2470000000       0.2470000000
            0.2470000000       0.7530000000       0.7530000000
            0.2470000000       0.7530000000       0.2470000000
            0.7530000000       0.2470000000       0.7530000000
            0.2470000000       0.2470000000       0.7530000000
            0.7530000000       0.7530000000       0.2470000000
