Sr2 Ni O6 W
1.0
     -2.7785499096       2.7785499096       3.9565498829
      2.7785499096      -2.7785499096       3.9565498829
      2.7785499096       2.7785499096      -3.9565498829
  O  W Sr Ni
   6  1   2  1
Direct
           0.2270000000       0.2890000000       0.5160000000
           0.7730000000       0.7110000000       0.4840000000
           0.2890000000       0.7730000000       0.0620000000
           0.7110000000       0.2270000000       0.9380000000
           0.2550000000       0.2550000000       0.0000000000
           0.7450000000       0.7450000000      -0.0000000000
           0.5000000000       0.5000000000       0.0000000000
           0.7500000000       0.2500000000       0.5000000000
           0.2500000000       0.7500000000       0.5000000000
           0.0000000000       0.0000000000       0.0000000000

